data/solutions/recovery/wellformed/intermediate/binding/wellformed_intermediate_instance41/23.sol
Elapsed time: 100.49
Upper bound: 263157.0
Planning weighted value: 1023353469.0
C[0]=263157.0
C[1]=263145.0
C[2]=263143.0
C[3]=263135.0
C[4]=263115.0
C[5]=263091.0
C[6]=263082.0
C[7]=263057.0
C[8]=262950.0
C[9]=262833.0
C[10]=262661.0
C[11]=0.0
y[0]=1
y[1]=5
y[2]=3
y[3]=5
y[4]=9
y[5]=0
y[6]=7
y[7]=7
y[8]=5
y[9]=2
y[10]=8
y[11]=4
y[12]=10
y[13]=3
y[14]=1
y[15]=2
y[16]=5
y[17]=8
y[18]=7
y[19]=10
y[20]=9
y[21]=0
y[22]=4
y[23]=2
y[24]=0
y[25]=6
y[26]=1
y[27]=4
y[28]=4
y[29]=7
y[30]=9
y[31]=2
y[32]=2
y[33]=10
y[34]=8
y[35]=4
y[36]=7
y[37]=10
y[38]=6
y[39]=2
y[40]=7
y[41]=5
y[42]=7
y[43]=3
y[44]=10
y[45]=9
y[46]=1
y[47]=0
y[48]=6
y[49]=9
y[50]=6
y[51]=6
y[52]=5
y[53]=10
y[54]=2
y[55]=8
y[56]=8
y[57]=2
y[58]=9
y[59]=0
y[60]=2
y[61]=2
y[62]=10
y[63]=4
y[64]=7
y[65]=10
y[66]=0
y[67]=1
y[68]=10
y[69]=10
y[70]=1
y[71]=9
y[72]=2
y[73]=4
y[74]=0
y[75]=7
y[76]=6
y[77]=3
y[78]=10
y[79]=2
y[80]=8
y[81]=6
y[82]=5
y[83]=8
y[84]=6
y[85]=3
y[86]=8
y[87]=1
y[88]=3
y[89]=0
y[90]=7
y[91]=2
y[92]=7
y[93]=0
y[94]=5
y[95]=0
y[96]=8
y[97]=7
y[98]=9
y[99]=7
y[100]=9
y[101]=9
y[102]=5
y[103]=3
y[104]=0
y[105]=10
y[106]=0
y[107]=4
y[108]=7
y[109]=7
y[110]=8
y[111]=1
y[112]=5
y[113]=8
y[114]=7
y[115]=3
y[116]=6
y[117]=4
y[118]=3
y[119]=9
y[120]=0
y[121]=6
y[122]=6
y[123]=3
y[124]=4
y[125]=0
y[126]=8
y[127]=7
y[128]=3
y[129]=4
y[130]=10
y[131]=3
y[132]=3
y[133]=0
y[134]=4
y[135]=6
y[136]=6
y[137]=8
y[138]=5
y[139]=4
y[140]=0
y[141]=0
y[142]=8
y[143]=4
y[144]=6
y[145]=3
y[146]=10
y[147]=10
y[148]=6
y[149]=10
y[150]=4
y[151]=3
y[152]=9
y[153]=10
y[154]=1
y[155]=6
y[156]=2
y[157]=2
y[158]=7
y[159]=8
y[160]=0
y[161]=6
y[162]=4
y[163]=10
y[164]=8
y[165]=1
y[166]=0
y[167]=3
y[168]=5
y[169]=0
y[170]=5
y[171]=7
y[172]=10
y[173]=0
y[174]=5
y[175]=9
y[176]=3
y[177]=5
y[178]=4
y[179]=6
y[180]=1
y[181]=10
y[182]=10
y[183]=6
y[184]=0
y[185]=10
y[186]=6
y[187]=0
y[188]=6
y[189]=8
y[190]=10
y[191]=0
y[192]=1
y[193]=2
y[194]=9
y[195]=10
y[196]=4
y[197]=0
y[198]=0
y[199]=7
y[200]=7
y[201]=7
y[202]=10
y[203]=6
y[204]=1
y[205]=4
y[206]=1
y[207]=2
y[208]=8
y[209]=1
y[210]=4
y[211]=9
y[212]=8
y[213]=0
y[214]=3
y[215]=4
y[216]=7
y[217]=10
y[218]=2
y[219]=2
y[220]=2
y[221]=10
y[222]=2
y[223]=1
y[224]=5
y[225]=2
y[226]=1
y[227]=0
y[228]=10
y[229]=0
y[230]=6
y[231]=10
y[232]=4
y[233]=3
y[234]=4
y[235]=5
y[236]=4
y[237]=1
y[238]=6
y[239]=6
y[240]=4
y[241]=7
y[242]=10
y[243]=5
y[244]=6
y[245]=9
y[246]=8
y[247]=8
y[248]=3
y[249]=5
y[250]=1
y[251]=2
y[252]=8
y[253]=3
y[254]=1
y[255]=4
y[256]=2
y[257]=7
y[258]=8
y[259]=2
y[260]=1
y[261]=8
y[262]=2
y[263]=1
y[264]=6
y[265]=8
y[266]=7
y[267]=1
y[268]=9
y[269]=5
y[270]=5
y[271]=8
y[272]=4
y[273]=5
y[274]=3
y[275]=4
y[276]=3
y[277]=1
y[278]=8
y[279]=0
y[280]=9
y[281]=1
y[282]=9
y[283]=6
y[284]=2
y[285]=1
y[286]=7
y[287]=7
y[288]=8
y[289]=2
y[290]=6
y[291]=0
y[292]=5
y[293]=9
y[294]=1
y[295]=6
y[296]=3
y[297]=8
y[298]=8
y[299]=1
y[300]=1
y[301]=6
y[302]=3
y[303]=3
y[304]=0
y[305]=3
y[306]=9
y[307]=8
y[308]=10
y[309]=8
y[310]=5
y[311]=1
