data/solutions/recovery/wellformed/intermediate/binding/wellformed_intermediate_instance41/23.log

Log started (V12.6.3.0) Fri Apr 20 18:32:30 2018

New value for default parallel thread count: 1

Problem '/tmp/tmpRxBLm4.pyomo.lp' read.
Read time = 0.14 sec. (13.06 ticks)

Problem name         : /tmp/tmpRxBLm4.pyomo.lp
Objective sense      : Minimize
Variables            :    3758  [Nneg: 1,  Binary: 3744,  General Integer: 13]
Objective nonzeros   :       1
Linear constraints   :     650  [Less: 324,  Equal: 326]
  Nonzeros           :  968557
  RHS nonzeros       :     313

Variables            : Min LB: 0.000000         Max UB: 1.000000       
Objective nonzeros   : Min   : 1.000000         Max   : 1.000000       
Linear constraints   :
  Nonzeros           : Min   : 1.000000         Max   : 19298.00       
  RHS nonzeros       : Min   : 1.000000         Max   : 1.000000       
Tried aggregator 2 times.
MIP Presolve eliminated 599 rows and 3427 columns.
Aggregator did 11 substitutions.
Reduced MIP has 40 rows, 320 columns, and 649 nonzeros.
Reduced MIP has 319 binaries, 1 generals, 0 SOSs, and 0 indicators.
Presolve time = 0.04 sec. (57.64 ticks)
Found incumbent of value 598141.000000 after 0.07 sec. (80.13 ticks)
Probing time = 0.00 sec. (0.35 ticks)
Tried aggregator 1 time.
Reduced MIP has 40 rows, 320 columns, and 649 nonzeros.
Reduced MIP has 319 binaries, 1 generals, 0 SOSs, and 0 indicators.
Presolve time = 0.00 sec. (0.56 ticks)
Probing time = 0.00 sec. (0.35 ticks)
Clique table members: 29.
MIP emphasis: balance optimality and feasibility.
MIP search method: dynamic search.
Parallel mode: none, using 1 thread.
Root relaxation solution time = 0.00 sec. (0.59 ticks)

        Nodes                                         Cuts/
   Node  Left     Objective  IInf  Best Integer    Best Bound    ItCnt     Gap

*     0+    0                       598141.0000   249883.0000            58.22%
      0     0   263033.5455    19   598141.0000   263033.5455       66   56.02%
*     0+    0                       270481.0000   263033.5455             2.75%
      0     0   263034.0000    21   270481.0000      Fract: 6       93    2.75%
*     0+    0                       268691.0000   263034.0000             2.11%
      0     0   263034.0000    28   268691.0000      Cuts: 16      136    2.11%
*     0+    0                       266350.0000   263034.0000             1.24%
*     0+    0                       266077.0000   263034.0000             1.14%
      0     2   263034.0000    20   266077.0000   263034.0000      136    1.14%
Elapsed time = 0.09 sec. (99.12 ticks, tree = 0.01 MB, solutions = 5)
*    10+   10                       265652.0000   263034.0000             0.99%
*    50+   48                       265566.0000   263034.0000             0.95%
*    64    62      integral     0   264912.0000   263034.0000      479    0.71%
*   150+  119                       264403.0000   263034.0000             0.52%
*   494+  398                       264141.0000   263034.0000             0.42%
*   495+  395                       263933.0000   263034.0000             0.34%
*   496+  392                       263862.0000   263034.0000             0.31%
*   497+  262                       263831.0000   263034.0000             0.30%
*   497+  174                       263666.0000   263034.0000             0.24%
*   497+  116                       263640.0000   263034.0000             0.23%
*   497+   77                       263581.0000   263034.0000             0.21%
*   597+   68                       263451.0000   263034.0000             0.16%
*   597+   62                       263425.0000   263034.0000             0.15%
    597    60   263547.0000    10   263425.0000   263034.0000     2724    0.15%
    598    60   263034.0000    17   263425.0000   263034.0000     2726    0.15%
    599    60   263034.0000    16   263425.0000   263034.0000     2731    0.15%
    600    61   263034.0000    17   263425.0000   263034.0000     2732    0.15%
    601    61   263034.0000    17   263425.0000   263034.0000     2738    0.15%
    602    61   263034.0000    17   263425.0000   263034.0000     2743    0.15%
    603    61   263120.0000    15   263425.0000   263034.0000     2750    0.15%
    604    61   263120.0000    14   263425.0000   263034.0000     2751    0.15%
    605    62   263120.0000    15   263425.0000   263034.0000     2757    0.15%
*   797+  174                       263393.0000   263034.0000             0.14%
*   797+  139                       263335.0000   263034.0000             0.11%
*   797+  112                       263298.0000   263034.0000             0.10%
*   997+  249                       263290.0000   263034.0000             0.10%
   1297   462   263259.8571    12   263290.0000   263034.0000     4693    0.10%
Elapsed time = 1.02 sec. (1078.24 ticks, tree = 0.15 MB, solutions = 22)
  12743  7829        cutoff         263290.0000   263034.0000    28601    0.10%
  12744  7828        cutoff         263290.0000   263034.0000    28604    0.10%
  12745  7827        cutoff         263290.0000   263034.0000    28609    0.10%
  12746  7826        cutoff         263290.0000   263034.0000    28612    0.10%
  12747  7825        cutoff         263290.0000   263034.0000    28615    0.10%
  12748  7826   263034.0000    15   263290.0000   263034.0000    28621    0.10%
  12749  7827   263034.0000    15   263290.0000   263034.0000    28622    0.10%
  12750  7828   263034.0000    15   263290.0000   263034.0000    28625    0.10%
  12751  7829   263034.0000    15   263290.0000   263034.0000    28626    0.10%
  12752  7830   263034.0000    15   263290.0000   263034.0000    28627    0.10%
Elapsed time = 1.98 sec. (2032.79 ticks, tree = 2.64 MB, solutions = 22)
  26798 16673        cutoff         263290.0000   263034.0000    56418    0.10%
  26799 16674   263053.6250    12   263290.0000   263034.0000    56426    0.10%
  26800 16675   263053.6250    13   263290.0000   263034.0000    56430    0.10%
  26801 16676   263053.6250    12   263290.0000   263034.0000    56432    0.10%
  26802 16677   263053.6250    13   263290.0000   263034.0000    56434    0.10%
  26803 16678   263053.6250    12   263290.0000   263034.0000    56440    0.10%
  26804 16679   263053.6250    13   263290.0000   263034.0000    56442    0.10%
  26805 16680   263053.6250    12   263290.0000   263034.0000    56444    0.10%
  26806 16681   263053.6250    12   263290.0000   263034.0000    56445    0.10%
  26807 16682   263053.6250    12   263290.0000   263034.0000    56446    0.10%
Elapsed time = 2.96 sec. (2988.27 ticks, tree = 6.10 MB, solutions = 22)
  40478 25160   263034.0000    14   263290.0000   263034.0000    85108    0.10%
  40479 25161   263034.0000    15   263290.0000   263034.0000    85109    0.10%
  40480 25162   263034.0000    15   263290.0000   263034.0000    85110    0.10%
  40481 25163   263034.0000    14   263290.0000   263034.0000    85115    0.10%
  40482 25164   263034.0000    14   263290.0000   263034.0000    85119    0.10%
  40483 25165   263034.0000    14   263290.0000   263034.0000    85122    0.10%
  40484 25166   263120.7500    14   263290.0000   263034.0000    85127    0.10%
  40485 25167   263120.7500    14   263290.0000   263034.0000    85128    0.10%
  40486 25168   263120.7500    14   263290.0000   263034.0000    85131    0.10%
  40487 25168   263120.7500    14   263290.0000   263034.0000    85132    0.10%
Elapsed time = 3.95 sec. (3943.03 ticks, tree = 8.79 MB, solutions = 22)
  53568 31876        cutoff         263290.0000   263034.0000   112279    0.10%
  53569 31875    infeasible         263290.0000   263034.0000   112279    0.10%
  53570 31874        cutoff         263290.0000   263034.0000   112283    0.10%
  53571 31875   263034.0000    14   263290.0000   263034.0000   112289    0.10%
  53572 31876   263034.0000    14   263290.0000   263034.0000   112291    0.10%
  53573 31877   263034.0000    15   263290.0000   263034.0000   112297    0.10%
  53574 31878   263034.0000    15   263290.0000   263034.0000   112299    0.10%
  53575 31879   263034.0000    15   263290.0000   263034.0000   112300    0.10%
  53576 31878        cutoff         263290.0000   263034.0000   112302    0.10%
  53577 31877        cutoff         263290.0000   263034.0000   112305    0.10%
Elapsed time = 4.93 sec. (4897.68 ticks, tree = 10.91 MB, solutions = 22)
  68438 39235   263257.5000    14   263290.0000   263034.0000   142896    0.10%
  68439 39236   263257.5000    14   263290.0000   263034.0000   142897    0.10%
  68440 39237   263257.5000    14   263290.0000   263034.0000   142900    0.10%
  68441 39236        cutoff         263290.0000   263034.0000   142903    0.10%
  68442 39237   263257.5000    14   263290.0000   263034.0000   142904    0.10%
  68443 39238   263257.5000    13   263290.0000   263034.0000   142906    0.10%
  68444 39239   263257.5000    14   263290.0000   263034.0000   142911    0.10%
  68445 39238    infeasible         263290.0000   263034.0000   142911    0.10%
  68446 39237    infeasible         263290.0000   263034.0000   142911    0.10%
  68447 39236    infeasible         263290.0000   263034.0000   142911    0.10%
Elapsed time = 5.92 sec. (5851.72 ticks, tree = 14.18 MB, solutions = 22)
  83519 45305        cutoff         263290.0000   263034.0000   173639    0.10%
  83520 45304        cutoff         263290.0000   263034.0000   173643    0.10%
  83521 45303        cutoff         263290.0000   263034.0000   173648    0.10%
  83522 45302        cutoff         263290.0000   263034.0000   173654    0.10%
  83523 45301        cutoff         263290.0000   263034.0000   173657    0.10%
  83524 45300        cutoff         263290.0000   263034.0000   173661    0.10%
  83525 45299        cutoff         263290.0000   263034.0000   173665    0.10%
  83526 45298    infeasible         263290.0000   263034.0000   173665    0.10%
  83527 45297    infeasible         263290.0000   263034.0000   173665    0.10%
  83528 45296    infeasible         263290.0000   263034.0000   173665    0.10%
Elapsed time = 6.90 sec. (6806.40 ticks, tree = 16.11 MB, solutions = 22)
  99121 51829   263034.0000    14   263290.0000   263034.0000   206602    0.10%
  99122 51830   263268.7500    13   263290.0000   263034.0000   206603    0.10%
  99123 51831   263268.7500    14   263290.0000   263034.0000   206607    0.10%
  99124 51830        cutoff         263290.0000   263034.0000   206609    0.10%
  99125 51830   263268.7500    13   263290.0000   263034.0000   206613    0.10%
  99126 51829        cutoff         263290.0000   263034.0000   206614    0.10%
  99127 51828        cutoff         263290.0000   263034.0000   206616    0.10%
  99128 51829   263120.7500    13   263290.0000   263034.0000   206620    0.10%
  99129 51830   263120.7500    13   263290.0000   263034.0000   206621    0.10%
  99130 51830   263120.7500    14   263290.0000   263034.0000   206622    0.10%
Elapsed time = 7.87 sec. (7761.09 ticks, tree = 18.17 MB, solutions = 22)
 113881 57923   263034.0000    15   263290.0000   263034.0000   237497    0.10%
 113882 57922    infeasible         263290.0000   263034.0000   237497    0.10%
 113883 57921    infeasible         263290.0000   263034.0000   237497    0.10%
 113884 57920        cutoff         263290.0000   263034.0000   237502    0.10%
 113885 57919        cutoff         263290.0000   263034.0000   237505    0.10%
 113886 57918    infeasible         263290.0000   263034.0000   237505    0.10%
 113887 57917    infeasible         263290.0000   263034.0000   237505    0.10%
 113888 57916        cutoff         263290.0000   263034.0000   237508    0.10%
 113889 57915    infeasible         263290.0000   263034.0000   237508    0.10%
 113890 57916   263034.0000    15   263290.0000   263034.0000   237514    0.10%
Elapsed time = 8.84 sec. (8715.53 ticks, tree = 20.10 MB, solutions = 22)
 128937 63019   263050.5000    12   263290.0000   263034.0000   269007    0.10%
 128938 63020   263050.5000    12   263290.0000   263034.0000   269008    0.10%
 128939 63021   263050.5000    14   263290.0000   263034.0000   269014    0.10%
 128940 63022   263050.5000    14   263290.0000   263034.0000   269015    0.10%
 128941 63023   263050.5000    13   263290.0000   263034.0000   269016    0.10%
 128942 63024   263050.5000    13   263290.0000   263034.0000   269017    0.10%
 128943 63025   263050.5000    13   263290.0000   263034.0000   269018    0.10%
 128944 63026   263050.5000    13   263290.0000   263034.0000   269019    0.10%
 128945 63027   263050.5000    13   263290.0000   263034.0000   269020    0.10%
 175234 88356   263177.5000    13   263290.0000   263034.0000   366566    0.10%
Elapsed time = 12.73 sec. (12530.23 ticks, tree = 31.48 MB, solutions = 22)
 245650 145932   263064.8000    17   263290.0000   263034.0000   508729    0.10%
 245651 145933   263064.8000    17   263290.0000   263034.0000   508730    0.10%
 245652 145934   263064.8000    17   263290.0000   263034.0000   508731    0.10%
 245653 145935   263064.8000    17   263290.0000   263034.0000   508733    0.10%
 245654 145936   263064.8000    17   263290.0000   263034.0000   508736    0.10%
 245655 145937   263143.0000    15   263290.0000   263034.0000   508743    0.10%
 245656 145938   263143.0000    15   263290.0000   263034.0000   508746    0.10%
 245657 145939   263179.6250    14   263290.0000   263034.0000   508754    0.10%
 245658 145940   263179.6250    13   263290.0000   263034.0000   508755    0.10%
 245659 145941   263179.6250    13   263290.0000   263034.0000   508759    0.10%
Elapsed time = 16.59 sec. (16345.44 ticks, tree = 50.54 MB, solutions = 22)
 306497 193776   263126.4444    17   263290.0000   263034.0000   637617    0.10%
 306498 193776   263126.4444    17   263290.0000   263034.0000   637618    0.10%
 306499 193775        cutoff         263290.0000   263034.0000   637620    0.10%
 306500 193776   263044.1250    17   263290.0000   263034.0000   637623    0.10%
 306501 193776   263064.5000    15   263290.0000   263034.0000   637626    0.10%
 306502 193777   263195.0000    12   263290.0000   263034.0000   637627    0.10%
 306503 193778   263195.0000    12   263290.0000   263034.0000   637629    0.10%
 306504 193779   263195.0000    13   263290.0000   263034.0000   637633    0.10%
 306505 193780   263195.0000    12   263290.0000   263034.0000   637636    0.10%
 306506 193781   263195.0000    12   263290.0000   263034.0000   637638    0.10%
Elapsed time = 20.47 sec. (20160.92 ticks, tree = 67.58 MB, solutions = 22)
*358976 192169      integral     0   263248.0000   263034.0000   746001    0.08%
*359076+131777                       263182.0000   263034.0000             0.06%
 363647 134812   263034.0000    16   263182.0000   263034.0000   755611    0.06%
 363648 134813   263134.8889    15   263182.0000   263034.0000   755615    0.06%
 363649 134814   263134.8889    15   263182.0000   263034.0000   755616    0.06%
 363650 134815   263134.8889    15   263182.0000   263034.0000   755617    0.06%
 363651 134816   263134.8889    15   263182.0000   263034.0000   755618    0.06%
 363652 134817   263134.8889    15   263182.0000   263034.0000   755619    0.06%
 363653 134818   263134.8889    14   263182.0000   263034.0000   755620    0.06%
 363654 134819   263134.8889    15   263182.0000   263034.0000   755621    0.06%
 363655 134820   263134.8889    15   263182.0000   263034.0000   755622    0.06%
 363656 134821   263134.8889    15   263182.0000   263034.0000   755623    0.06%
Elapsed time = 24.42 sec. (23976.21 ticks, tree = 50.63 MB, solutions = 24)
 415673 171123   263166.5556    13   263182.0000   263034.0000   860758    0.06%
 415674 171124   263166.5556    14   263182.0000   263034.0000   860759    0.06%
 415675 171125   263166.5556    14   263182.0000   263034.0000   860760    0.06%
 415676 171126   263166.5556    14   263182.0000   263034.0000   860761    0.06%
 415677 171127   263166.5556    14   263182.0000   263034.0000   860768    0.06%
 415678 171128   263166.5556    15   263182.0000   263034.0000   860770    0.06%
 415679 171129   263166.5556    16   263182.0000   263034.0000   860774    0.06%
 415680 171130   263166.5556    16   263182.0000   263034.0000   860777    0.06%
 415681 171131   263166.5556    16   263182.0000   263034.0000   860778    0.06%
 415682 171132   263166.5556    16   263182.0000   263034.0000   860779    0.06%
Elapsed time = 28.41 sec. (27791.37 ticks, tree = 61.44 MB, solutions = 24)
 475757 213641   263125.3333    14   263182.0000   263034.0000   985265    0.06%
 475758 213642   263125.3333    14   263182.0000   263034.0000   985267    0.06%
 475759 213643   263125.3333    13   263182.0000   263034.0000   985270    0.06%
 475760 213644   263125.3333    14   263182.0000   263034.0000   985272    0.06%
 475761 213645   263125.3333    14   263182.0000   263034.0000   985273    0.06%
 475762 213646   263125.3333    14   263182.0000   263034.0000   985274    0.06%
 475763 213647   263125.3333    14   263182.0000   263034.0000   985276    0.06%
 475764 213646        cutoff         263182.0000   263034.0000   985277    0.06%
 475765 213645        cutoff         263182.0000   263034.0000   985280    0.06%
 475766 213644    infeasible         263182.0000   263034.0000   985280    0.06%
Elapsed time = 32.51 sec. (31606.91 ticks, tree = 74.26 MB, solutions = 24)
 529233 251933   263155.0061    15   263182.0000   263034.0000  1097135    0.06%
 529234 251932        cutoff         263182.0000   263034.0000  1097144    0.06%
 529235 251933   263034.0000    17   263182.0000   263034.0000  1097146    0.06%
 529236 251934   263034.0000    17   263182.0000   263034.0000  1097151    0.06%
 529237 251935   263034.0000    17   263182.0000   263034.0000  1097152    0.06%
 529238 251936   263055.2000    16   263182.0000   263034.0000  1097153    0.06%
 529239 251937   263034.0000    17   263182.0000   263034.0000  1097157    0.06%
 529240 251938   263034.0000    17   263182.0000   263034.0000  1097160    0.06%
 529241 251939   263078.3000    16   263182.0000   263034.0000  1097166    0.06%
 529242 251940   263034.0000    16   263182.0000   263034.0000  1097168    0.06%
Elapsed time = 36.50 sec. (35422.13 ticks, tree = 85.86 MB, solutions = 24)
 574971 277828        cutoff         263182.0000   263034.0000  1230100    0.06%
 574972 277829   263166.5556    16   263182.0000   263034.0000  1230104    0.06%
 574973 277830   263166.5556    17   263182.0000   263034.0000  1230106    0.06%
 574974 277829        cutoff         263182.0000   263034.0000  1230111    0.06%
 574975 277828        cutoff         263182.0000   263034.0000  1230114    0.06%
 574976 277827    infeasible         263182.0000   263034.0000  1230114    0.06%
 574977 277826        cutoff         263182.0000   263034.0000  1230124    0.06%
 574978 277827   263034.0000    21   263182.0000   263034.0000  1230132    0.06%
 574979 277828   263034.0000    20   263182.0000   263034.0000  1230134    0.06%
 574980 277829   263034.0000    19   263182.0000   263034.0000  1230136    0.06%
Elapsed time = 40.54 sec. (39237.83 ticks, tree = 95.58 MB, solutions = 24)
 613468 299421   263034.0000    18   263182.0000   263034.0000  1363259    0.06%
 613469 299421   263034.0000    20   263182.0000   263034.0000  1363265    0.06%
 613470 299420        cutoff         263182.0000   263034.0000  1363267    0.06%
 613471 299419        cutoff         263182.0000   263034.0000  1363268    0.06%
 613472 299418        cutoff         263182.0000   263034.0000  1363275    0.06%
 613473 299417        cutoff         263182.0000   263034.0000  1363283    0.06%
 613474 299418   263116.3333    14   263182.0000   263034.0000  1363293    0.06%
 613475 299419   263116.3333    14   263182.0000   263034.0000  1363294    0.06%
 613476 299420   263116.3333    14   263182.0000   263034.0000  1363295    0.06%
 613477 299421   263116.3333    15   263182.0000   263034.0000  1363296    0.06%
Elapsed time = 44.70 sec. (43054.38 ticks, tree = 102.30 MB, solutions = 24)
 659666 328796        cutoff         263182.0000   263034.0000  1495767    0.06%
 659667 328795        cutoff         263182.0000   263034.0000  1495781    0.06%
 659668 328794        cutoff         263182.0000   263034.0000  1495793    0.06%
 659669 328793        cutoff         263182.0000   263034.0000  1495805    0.06%
 659670 328792        cutoff         263182.0000   263034.0000  1495819    0.06%
 659671 328791        cutoff         263182.0000   263034.0000  1495828    0.06%
 659672 328792   263090.5000    18   263182.0000   263034.0000  1495837    0.06%
 659673 328793   263090.5000    19   263182.0000   263034.0000  1495838    0.06%
 659674 328794   263090.5000    21   263182.0000   263034.0000  1495840    0.06%
 659675 328795   263090.5000    19   263182.0000   263034.0000  1495844    0.06%
Elapsed time = 48.65 sec. (46870.53 ticks, tree = 113.53 MB, solutions = 24)
 698468 350714   263034.0000    18   263182.0000   263034.0000  1620677    0.06%
 698469 350715   263034.0000    18   263182.0000   263034.0000  1620678    0.06%
 698470 350716   263034.0000    17   263182.0000   263034.0000  1620682    0.06%
 698471 350715        cutoff         263182.0000   263034.0000  1620685    0.06%
 698472 350716   263034.0000    18   263182.0000   263034.0000  1620687    0.06%
 698473 350717   263034.0000    17   263182.0000   263034.0000  1620688    0.06%
 698474 350718   263034.0000    17   263182.0000   263034.0000  1620689    0.06%
 698475 350719   263034.0000    18   263182.0000   263034.0000  1620690    0.06%
 698476 350720   263034.0000    18   263182.0000   263034.0000  1620691    0.06%
 698477 350721   263034.0000    17   263182.0000   263034.0000  1620692    0.06%
Elapsed time = 52.67 sec. (50686.32 ticks, tree = 120.28 MB, solutions = 24)
 740236 376952   263034.0000    15   263182.0000   263034.0000  1740658    0.06%
 740237 376953   263034.0000    16   263182.0000   263034.0000  1740660    0.06%
 740238 376954   263034.0000    16   263182.0000   263034.0000  1740661    0.06%
 740239 376955   263034.0000    16   263182.0000   263034.0000  1740662    0.06%
 740240 376956   263034.0000    16   263182.0000   263034.0000  1740663    0.06%
 740241 376957   263034.0000    16   263182.0000   263034.0000  1740664    0.06%
 740242 376958   263034.0000    16   263182.0000   263034.0000  1740665    0.06%
 740243 376959   263034.0000    18   263182.0000   263034.0000  1740668    0.06%
 740244 376960   263034.0000    16   263182.0000   263034.0000  1740669    0.06%
 740245 376961   263034.0000    19   263182.0000   263034.0000  1740673    0.06%
Elapsed time = 56.56 sec. (54502.03 ticks, tree = 128.07 MB, solutions = 24)
 787037 403817   263161.6667    15   263182.0000   263034.0000  1879418    0.06%
 787038 403818   263161.6667    17   263182.0000   263034.0000  1879422    0.06%
 787039 403819   263161.6667    17   263182.0000   263034.0000  1879423    0.06%
 787040 403820   263161.6667    15   263182.0000   263034.0000  1879426    0.06%
 787041 403821   263161.6667    15   263182.0000   263034.0000  1879428    0.06%
 787042 403822   263161.6667    15   263182.0000   263034.0000  1879430    0.06%
 787043 403823   263161.6667    15   263182.0000   263034.0000  1879432    0.06%
 787044 403824   263161.6667    16   263182.0000   263034.0000  1879437    0.06%
 787045 403825   263161.6667    15   263182.0000   263034.0000  1879439    0.06%
 787046 403826   263161.6667    15   263182.0000   263034.0000  1879440    0.06%
Elapsed time = 60.50 sec. (58317.13 ticks, tree = 138.80 MB, solutions = 24)
 833507 436745   263034.0000    18   263182.0000   263034.0000  2004975    0.06%
 833508 436746   263034.0000    18   263182.0000   263034.0000  2004977    0.06%
 833509 436747   263034.0000    20   263182.0000   263034.0000  2004980    0.06%
 833510 436748   263034.0000    21   263182.0000   263034.0000  2004982    0.06%
 833511 436749   263034.0000    21   263182.0000   263034.0000  2004983    0.06%
 833512 436750   263034.0000    20   263182.0000   263034.0000  2004984    0.06%
 833513 436751   263034.0000    19   263182.0000   263034.0000  2004986    0.06%
 833514 436752   263034.0000    19   263182.0000   263034.0000  2004987    0.06%
 833515 436753   263044.1000    17   263182.0000   263034.0000  2004991    0.06%
 833516 436754   263044.1000    18   263182.0000   263034.0000  2004992    0.06%
Elapsed time = 64.55 sec. (62132.31 ticks, tree = 148.45 MB, solutions = 24)
 874041 460404   263034.0000    19   263182.0000   263034.0000  2127621    0.06%
 874042 460405   263034.0000    19   263182.0000   263034.0000  2127623    0.06%
 874043 460406   263034.0000    21   263182.0000   263034.0000  2127626    0.06%
 874044 460407   263034.0000    21   263182.0000   263034.0000  2127629    0.06%
 874045 460408   263034.0000    19   263182.0000   263034.0000  2127634    0.06%
 874046 460409   263034.0000    19   263182.0000   263034.0000  2127635    0.06%
 874047 460410   263045.4000    18   263182.0000   263034.0000  2127638    0.06%
 874048 460411   263045.4000    16   263182.0000   263034.0000  2127639    0.06%
 874049 460412   263045.4000    18   263182.0000   263034.0000  2127645    0.06%
 874050 460413   263045.4000    18   263182.0000   263034.0000  2127646    0.06%
Elapsed time = 68.55 sec. (65947.96 ticks, tree = 155.51 MB, solutions = 24)
 919408 488154   263156.2000    18   263182.0000   263034.0000  2264065    0.06%
 919409 488155   263156.2000    17   263182.0000   263034.0000  2264066    0.06%
 919410 488156   263156.2000    18   263182.0000   263034.0000  2264069    0.06%
 919411 488157   263156.2000    18   263182.0000   263034.0000  2264073    0.06%
 919412 488158   263158.3952    15   263182.0000   263034.0000  2264081    0.06%
 919413 488157        cutoff         263182.0000   263034.0000  2264086    0.06%
 919414 488156    infeasible         263182.0000   263034.0000  2264086    0.06%
 919415 488157   263034.0000    18   263182.0000   263034.0000  2264092    0.06%
 919416 488158   263034.0000    17   263182.0000   263034.0000  2264093    0.06%
 919417 488159   263034.0000    20   263182.0000   263034.0000  2264102    0.06%
Elapsed time = 72.85 sec. (69763.96 ticks, tree = 167.01 MB, solutions = 24)
 957046 509993   263034.0000    19   263182.0000   263034.0000  2394235    0.06%
 957047 509994   263034.0000    18   263182.0000   263034.0000  2394243    0.06%
 957048 509995   263034.0000    19   263182.0000   263034.0000  2394244    0.06%
 957049 509996   263034.0000    19   263182.0000   263034.0000  2394246    0.06%
 957050 509997   263034.0000    19   263182.0000   263034.0000  2394254    0.06%
 957051 509998   263034.0000    18   263182.0000   263034.0000  2394257    0.06%
 957052 509997        cutoff         263182.0000   263034.0000  2394261    0.06%
 957053 509996        cutoff         263182.0000   263034.0000  2394264    0.06%
 957054 509997   263034.0000    19   263182.0000   263034.0000  2394273    0.06%
 957055 509998   263148.5000    18   263182.0000   263034.0000  2394275    0.06%
Elapsed time = 77.14 sec. (73580.12 ticks, tree = 173.41 MB, solutions = 24)
*990097+447902                       263157.0000   263034.0000             0.05%
 996099 451590   263034.0000    18   263157.0000   263034.0000  2525027    0.05%
 996100 451591   263034.0000    18   263157.0000   263034.0000  2525028    0.05%
 996101 451592   263034.0000    18   263157.0000   263034.0000  2525029    0.05%
 996102 451593   263076.4000    17   263157.0000   263034.0000  2525030    0.05%
 996103 451592        cutoff         263157.0000   263034.0000  2525032    0.05%
 996104 451593   263076.4000    18   263157.0000   263034.0000  2525037    0.05%
 996105 451594   263076.4000    17   263157.0000   263034.0000  2525038    0.05%
 996106 451595   263076.4000    18   263157.0000   263034.0000  2525039    0.05%
 996107 451596   263076.4000    19   263157.0000   263034.0000  2525040    0.05%
 996108 451597   263111.8889    16   263157.0000   263034.0000  2525041    0.05%
Elapsed time = 81.28 sec. (77395.24 ticks, tree = 155.02 MB, solutions = 25)
 1037590 477073   263034.0000    18   263157.0000   263034.0000  2659830    0.05%
 1037591 477074   263034.0000    18   263157.0000   263034.0000  2659835    0.05%
 1037592 477075   263034.0000    20   263157.0000   263034.0000  2659838    0.05%
 1037593 477076   263034.0000    20   263157.0000   263034.0000  2659839    0.05%
 1037594 477077   263034.0000    21   263157.0000   263034.0000  2659840    0.05%
 1037595 477078   263034.0000    20   263157.0000   263034.0000  2659842    0.05%
 1037596 477079   263034.0000    21   263157.0000   263034.0000  2659843    0.05%
 1037597 477080   263034.0000    20   263157.0000   263034.0000  2659845    0.05%
 1037598 477081   263034.0000    20   263157.0000   263034.0000  2659849    0.05%
 1037599 477082   263034.0000    19   263157.0000   263034.0000  2659850    0.05%
Elapsed time = 85.31 sec. (81210.78 ticks, tree = 162.52 MB, solutions = 25)
 1080142 503196   263108.2000    19   263157.0000   263034.0000  2790024    0.05%
 1080143 503197   263108.2000    21   263157.0000   263034.0000  2790027    0.05%
 1080144 503196        cutoff         263157.0000   263034.0000  2790028    0.05%
 1080145 503195        cutoff         263157.0000   263034.0000  2790031    0.05%
 1080146 503194    infeasible         263157.0000   263034.0000  2790031    0.05%
 1080147 503193        cutoff         263157.0000   263034.0000  2790035    0.05%
 1080148 503192        cutoff         263157.0000   263034.0000  2790042    0.05%
 1080149 503193   263129.3333    15   263157.0000   263034.0000  2790049    0.05%
 1080150 503194   263129.3333    17   263157.0000   263034.0000  2790055    0.05%
 1080151 503195   263129.3333    17   263157.0000   263034.0000  2790056    0.05%
Elapsed time = 89.33 sec. (85027.36 ticks, tree = 170.20 MB, solutions = 25)
 1112993 523048   263107.8571    13   263157.0000   263034.0000  2897914    0.05%
 1112994 523047        cutoff         263157.0000   263034.0000  2897916    0.05%
 1112995 523048   263107.8571    12   263157.0000   263034.0000  2897918    0.05%
 1112996 523047        cutoff         263157.0000   263034.0000  2897920    0.05%
 1112997 523046        cutoff         263157.0000   263034.0000  2897921    0.05%
 1112998 523047   263034.0000    20   263157.0000   263034.0000  2897933    0.05%
 1112999 523046        cutoff         263157.0000   263034.0000  2897939    0.05%
 1113000 523047   263034.0000    18   263157.0000   263034.0000  2897942    0.05%
 1113001 523048   263034.0000    17   263157.0000   263034.0000  2897946    0.05%
 1113002 523047        cutoff         263157.0000   263034.0000  2897947    0.05%
Elapsed time = 93.22 sec. (88843.16 ticks, tree = 176.01 MB, solutions = 25)
 1155424 547955   263069.3750    22   263157.0000   263034.0000  3031232    0.05%
 1155425 547956   263145.7143    14   263157.0000   263034.0000  3031236    0.05%
 1155426 547956   263145.7143    15   263157.0000   263034.0000  3031237    0.05%
 1155427 547955        cutoff         263157.0000   263034.0000  3031239    0.05%
 1155428 547956   263034.0000    21   263157.0000   263034.0000  3031250    0.05%
 1155429 547957   263034.0000    22   263157.0000   263034.0000  3031256    0.05%
 1155430 547958   263034.0000    21   263157.0000   263034.0000  3031259    0.05%
 1155431 547959   263034.0000    21   263157.0000   263034.0000  3031260    0.05%
 1155432 547960   263034.0000    22   263157.0000   263034.0000  3031261    0.05%
 1155433 547961   263034.0000    21   263157.0000   263034.0000  3031264    0.05%
Elapsed time = 97.17 sec. (92659.16 ticks, tree = 183.48 MB, solutions = 25)

Cover cuts applied:  4

Root node processing (before b&c):
  Real time             =    0.09 sec. (99.77 ticks)
Sequential b&c:
  Real time             =   99.91 sec. (95427.77 ticks)
                          ------------
Total (root+branch&cut) =  100.00 sec. (95527.55 ticks)

Solution pool: 25 solutions saved.

MIP - Time limit exceeded, integer feasible:  Objective =  2.6315700000e+05
Current MIP best bound =  2.6303400000e+05 (gap = 123, 0.05%)
Solution time =  100.00 sec.  Iterations = 3119846  Nodes = 1184547 (564617)
Deterministic time = 95527.56 ticks  (955.27 ticks/sec)


Incumbent solution written to file '/tmp/tmpTXihL8.cplex.sol'.
